939,8871
8844,4866
258,7219
3773,6008
2457,3593
4121,5416
3973,4912
7657,6163
1267,7951
7216,1118
6878,1256
5848,6749
9261,988
2887,689
7936,5930
5543,5761
6869,4269
9075,2504
4866,5678
5717,9179
6610,8740
2208,2508
4782,5111
9783,6160
4839,1593
3243,5418
2567,7667
3199,7468
1127,6817
5165,2857
2508,6258
2696,2877
6560,7164
4486,6743
4859,5194
2505,999
6979,8878
8466,5643
1302,4634
3014,3278
3840,9017
7663,9146
1272,3526
749,4851
8424,4035
9736,1226
40,2645
2842,2707
2581,2459
1805,5591

8828
9719
24799
23117
16641
24472
26795
18458
32329
20725
